1 -1 -2 0
1 1 -3 0
1 -2 1 0
1 -4 5 0
1 -6 -7 0
1 6 -4 0
1 -6 -8 0
1 -7 -9 0
1 -8 10 0
1 3 6 0
1 3 -2 0
1 5 11 0
1 9 -7 0
1 9 8 0
1 12 -11 0
1 -12 13 0
1 12 -14 0
1 -12 -8 0
1 -15 -16 0
1 17 -13 0
1 -17 -14 0
1 -14 -18 0
1 -14 -15 0
1 14 -4 0
1 14 19 0
1 -20 -21 0
1 -20 -4 0
1 13 10 0
1 -13 22 0
1 -23 19 0
1 -24 20 0
1 -24 14 0
1 -18 -14 0
1 -21 -25 0
1 21 26 0
1 26 -17 0
1 -26 15 0
1 26 -27 0
1 -16 -28 0
1 29 25 0
1 29 30 0
1 -29 15 0
1 -25 21 0
1 -25 24 0
1 25 29 0
1 25 19 0
1 31 -32 0
1 -33 34 0
1 -33 -31 0
1 35 36 0
1 -35 37 0
1 35 -38 0
1 35 -4 0
1 -35 -39 0
1 40 -41 0
1 -40 6 0
1 40 42 0
1 43 -11 0
1 -43 33 0
1 -43 -44 0
1 -41 -40 0
1 -41 45 0
1 -37 46 0
1 44 3 0
1 44 -9 0
1 -44 -47 0
1 -11 -12 0
1 48 -43 0
1 -48 -49 0
1 -50 51 0
1 50 -34 0
1 50 49 0
1 36 52 0
1 36 11 0
1 -36 48 0
1 -36 44 0
1 51 10 0
1 -51 11 0
1 51 -40 0
1 51 -53 0
1 51 54 0
1 -51 55 0
1 56 -57 0
1 -56 -53 0
1 56 58 0
1 -38 53 0
1 -38 48 0
1 38 -59 0
1 -38 -44 0
1 -54 -60 0
1 -54 -8 0
1 -10 -36 0
1 -10 3 0
1 10 -7 0
1 61 -62 0
1 61 -13 0
1 61 -51 0
1 52 63 0
1 52 -64 0
1 -62 -65 0
1 62 66 0
1 -62 22 0
1 62 -67 0
1 -49 52 0
1 49 10 0
1 -49 -68 0
1 -49 48 0
1 64 69 0
1 64 -70 0
1 -64 -53 0
1 -64 71 0
1 -60 52 0
1 -60 10 0
1 60 -48 0
1 -22 62 0
1 -22 53 0
1 -22 13 0
1 22 72 0
1 19 73 0
1 19 -23 0
1 -19 74 0
1 65 -74 0
1 -65 -29 0
1 -75 -76 0
1 -75 -62 0
1 -74 22 0
1 63 22 0
1 -63 -61 0
1 -63 -77 0
1 72 65 0
1 -72 -77 0
1 28 -78 0
1 28 -25 0
1 28 -79 0
1 80 28 0
1 80 -81 0
1 -80 79 0
1 80 67 0
1 82 -78 0
1 82 76 0
1 -82 -83 0
1 -82 81 0
1 -82 27 0
1 -84 85 0
1 -79 86 0
1 -79 87 0
1 79 88 0
1 -79 -89 0
1 -76 28 0
1 76 -79 0
1 76 -84 0
1 81 -86 0
1 -81 -90 0
1 81 65 0
1 -81 91 0
1 -78 80 0
1 92 79 0
1 -89 -93 0
1 89 -27 0
1 87 -76 0
1 -94 -27 0
1 -27 95 0
1 27 -92 0
1 -27 -82 0
1 -27 96 0
1 97 -87 0
1 97 -27 0
1 85 -86 0
1 -85 -93 0
1 85 92 0
1 85 82 0
1 85 96 0
1 85 -89 0
1 -85 -84 0
1 -93 86 0
1 -93 82 0
1 -93 98 0
1 -93 84 0
1 32 99 0
1 -32 -100 0
1 101 -100 0
1 39 -102 0
1 -39 -100 0
1 42 -103 0
1 42 -39 0
1 -104 42 0
1 -104 101 0
1 -99 -105 0
1 99 106 0
1 99 101 0
1 -100 -102 0
1 -100 -107 0
1 100 -108 0
1 -100 -32 0
1 102 105 0
1 -102 100 0
1 -102 -109 0
1 -47 -99 0
1 47 104 0
1 -106 110 0
1 -106 111 0
1 106 -37 0
1 -106 -104 0
1 -112 -110 0
1 -113 -114 0
1 113 -115 0
1 -116 47 0
1 116 -39 0
1 -111 -46 0
1 -111 45 0
1 -111 -47 0
1 117 106 0
1 117 -118 0
1 110 -108 0
1 110 -47 0
1 -45 -43 0
1 45 111 0
1 46 43 0
1 -46 -37 0
1 46 -45 0
1 46 -116 0
1 -58 -114 0
1 58 -111 0
1 -58 119 0
1 -58 120 0
1 -114 -121 0
1 -114 119 0
1 114 45 0
1 119 122 0
1 -119 112 0
1 -120 -123 0
1 120 57 0
1 115 -124 0
1 -115 -112 0
1 -53 56 0
1 73 53 0
1 73 125 0
1 -73 -126 0
1 127 -114 0
1 -127 -128 0
1 127 -71 0
1 71 128 0
1 71 119 0
1 71 -59 0
1 -71 -129 0
1 130 -57 0
1 -126 73 0
1 -126 -130 0
1 -126 34 0
1 131 41 0
1 -131 -57 0
1 -131 -132 0
1 131 133 0
1 -125 73 0
1 70 28 0
1 70 134 0
1 -70 -59 0
1 -70 -60 0
1 67 -80 0
1 -83 -135 0
1 136 128 0
1 -136 137 0
1 -136 72 0
1 -128 55 0
1 128 -138 0
1 128 -70 0
1 128 127 0
1 128 -139 0
1 128 67 0
1 128 71 0
1 -55 70 0
1 -55 77 0
1 140 141 0
1 -140 -139 0
1 -140 71 0
1 59 -140 0
1 59 70 0
1 90 -55 0
1 90 -134 0
1 90 -68 0
1 -77 -63 0
1 77 -90 0
1 77 128 0
1 -77 81 0
1 77 -89 0
1 77 68 0
1 -138 142 0
1 -138 137 0
1 -143 81 0
1 66 62 0
1 66 144 0
1 -66 -143 0
1 -66 -68 0
1 68 90 0
1 68 144 0
1 69 138 0
1 -69 77 0
1 -137 145 0
1 137 -146 0
1 137 77 0
1 -137 -60 0
1 86 -76 0
1 86 141 0
1 86 -147 0
1 86 -81 0
1 86 -85 0
1 98 -139 0
1 98 68 0
1 -98 -148 0
1 149 150 0
1 -149 144 0
1 149 85 0
1 149 68 0
1 144 -142 0
1 -144 91 0
1 -144 88 0
1 -144 -148 0
1 -142 -151 0
1 142 -86 0
1 151 -152 0
1 151 144 0
1 -151 -142 0
1 151 143 0
1 147 153 0
1 -147 -143 0
1 148 -149 0
1 148 138 0
1 148 -154 0
1 -148 -72 0
1 95 150 0
1 -95 -93 0
1 -96 -95 0
1 96 -150 0
1 -96 -91 0
1 155 -156 0
1 155 -157 0
1 -88 149 0
1 88 -158 0
1 -88 -155 0
1 88 79 0
1 -150 -159 0
1 91 156 0
1 -91 160 0
1 -91 154 0
1 -91 -144 0
1 -91 81 0
1 -156 -155 0
1 -159 -161 0
1 159 -157 0
1 159 -162 0
1 -158 -159 0
1 -163 150 0
1 -163 -164 0
1 -164 -163 0
1 -162 164 0
1 162 -159 0
1 157 159 0
1 -165 166 0
1 -165 167 0
1 -165 -168 0
1 -165 -159 0
1 -161 -169 0
1 161 158 0
1 -161 -165 0
1 161 -159 0
1 -170 171 0
1 170 172 0
1 170 -173 0
1 174 -171 0
1 174 175 0
1 103 -174 0
1 176 177 0
1 -176 178 0
1 173 -177 0
1 173 109 0
1 173 -174 0
1 171 -179 0
1 -171 -180 0
1 -171 174 0
1 181 -180 0
1 182 102 0
1 -182 -47 0
1 -182 -173 0
1 182 -183 0
1 -107 -175 0
1 109 102 0
1 109 -180 0
1 -109 173 0
1 -178 -184 0
1 -178 -185 0
1 -178 -100 0
1 178 109 0
1 -186 -187 0
1 186 174 0
1 188 186 0
1 184 175 0
1 184 -177 0
1 -184 -178 0
1 175 -189 0
1 -108 190 0
1 108 105 0
1 108 102 0
1 -108 100 0
1 105 177 0
1 105 99 0
1 -105 185 0
1 118 58 0
1 -191 -118 0
1 191 -192 0
1 -185 -193 0
1 185 108 0
1 -190 -194 0
1 -190 195 0
1 196 -197 0
1 196 105 0
1 196 178 0
1 196 198 0
1 196 187 0
1 -199 189 0
1 199 -191 0
1 199 -198 0
1 199 108 0
1 -199 -109 0
1 200 187 0
1 123 73 0
1 -123 -115 0
1 -123 117 0
1 201 -115 0
1 -201 202 0
1 -129 197 0
1 -129 203 0
1 -129 185 0
1 204 205 0
1 204 206 0
1 -204 -207 0
1 -205 99 0
1 205 -208 0
1 -205 133 0
1 205 -204 0
1 -192 -123 0
1 -192 -209 0
1 -192 195 0
1 192 129 0
1 210 -191 0
1 210 211 0
1 -210 192 0
1 -210 -129 0
1 133 205 0
1 -133 212 0
1 -207 -120 0
1 -207 -133 0
1 207 195 0
1 135 -83 0
1 135 122 0
1 135 -125 0
1 213 204 0
1 213 214 0
1 -202 -215 0
1 202 216 0
1 -202 217 0
1 212 218 0
1 -212 202 0
1 -219 220 0
1 219 -203 0
1 219 133 0
1 -219 -209 0
1 219 -221 0
1 219 207 0
1 -203 -220 0
1 203 -110 0
1 203 222 0
1 -203 -213 0
1 203 -129 0
1 -132 125 0
1 132 -202 0
1 132 -214 0
1 216 59 0
1 -216 214 0
1 215 -212 0
1 -223 143 0
1 -223 202 0
1 -121 -145 0
1 -121 224 0
1 -122 213 0
1 214 225 0
1 -214 -124 0
1 124 226 0
1 -124 -220 0
1 124 -227 0
1 -124 -223 0
1 -124 213 0
1 -141 -86 0
1 -141 -228 0
1 141 220 0
1 -141 -139 0
1 -141 -59 0
1 141 55 0
1 139 229 0
1 -139 230 0
1 145 122 0
1 145 -230 0
1 -146 229 0
1 -146 122 0
1 -229 -145 0
1 229 -215 0
1 231 -232 0
1 231 -233 0
1 231 146 0
1 231 -126 0
1 -228 145 0
1 -228 -232 0
1 228 -146 0
1 -230 -145 0
1 230 -234 0
1 230 125 0
1 230 235 0
1 -236 -95 0
1 -236 -137 0
1 -236 148 0
1 -237 -229 0
1 238 -239 0
1 238 -240 0
1 -233 229 0
1 233 -241 0
1 233 -242 0
1 233 -243 0
1 -241 236 0
1 241 -244 0
1 241 -245 0
1 -243 236 0
1 -243 244 0
1 -243 -154 0
1 -243 233 0
1 -243 -246 0
1 -247 -248 0
1 247 -237 0
1 -240 -237 0
1 -240 238 0
1 -249 -241 0
1 249 -159 0
1 154 -239 0
1 154 -147 0
1 -245 156 0
1 -245 241 0
1 245 250 0
1 -245 91 0
1 245 251 0
1 -160 -164 0
1 -160 -241 0
1 -160 252 0
1 160 -153 0
1 160 91 0
1 -239 253 0
1 239 254 0
1 -239 245 0
1 -254 154 0
1 254 249 0
1 -252 -255 0
1 252 256 0
1 -256 257 0
1 256 -244 0
1 167 152 0
1 -167 -250 0
1 -258 -156 0
1 -258 161 0
1 -258 -167 0
1 258 -254 0
1 166 -259 0
1 166 161 0
1 -253 259 0
1 -253 250 0
1 253 254 0
1 -250 260 0
1 -250 258 0
1 250 -261 0
1 -152 -262 0
1 152 260 0
1 152 263 0
1 153 -259 0
1 -153 258 0
1 153 -264 0
1 153 166 0
1 153 167 0
1 259 258 0
1 -259 167 0
1 -265 -263 0
1 -265 -266 0
1 263 -250 0
1 263 162 0
1 267 168 0
1 -260 268 0
1 -260 -269 0
1 -260 -270 0
1 -260 -250 0
1 266 263 0
1 266 271 0
1 -266 166 0
1 -272 -273 0
1 -272 274 0
1 272 267 0
1 272 -275 0
1 -276 262 0
1 -276 -263 0
1 -276 277 0
1 269 -253 0
1 -269 278 0
1 -274 272 0
1 274 169 0
1 -274 -275 0
1 -274 -168 0
1 -275 270 0
1 -271 -169 0
1 279 -169 0
1 279 -271 0
1 280 279 0
1 280 275 0
1 270 280 0
1 270 279 0
1 -168 273 0
1 169 267 0
1 -169 -279 0
1 281 -282 0
1 -281 -283 0
1 -284 285 0
1 282 286 0
1 282 -284 0
1 -282 -183 0
1 -287 281 0
1 288 281 0
1 -288 289 0
1 -288 290 0
1 -289 281 0
1 -289 283 0
1 183 -291 0
1 183 -287 0
1 183 285 0
1 183 181 0
1 183 182 0
1 -286 291 0
1 -286 171 0
1 -286 287 0
1 286 -181 0
1 -180 291 0
1 180 292 0
1 -180 -287 0
1 -180 293 0
1 -180 -294 0
1 180 295 0
1 292 -178 0
1 292 -171 0
1 292 -295 0
1 291 177 0
1 291 -293 0
1 -291 -296 0
1 -293 292 0
1 -293 296 0
1 293 179 0
1 -293 -180 0
1 -297 -298 0
1 -297 -292 0
1 179 291 0
1 179 184 0
1 -179 -173 0
1 177 -299 0
1 -177 -176 0
1 177 173 0
1 296 -300 0
1 301 -191 0
1 -301 291 0
1 301 -294 0
1 -300 -292 0
1 -300 -198 0
1 295 292 0
1 295 -198 0
1 -295 -187 0
1 -299 302 0
1 299 -296 0
1 299 -180 0
1 294 303 0
1 -189 -300 0
1 -189 -187 0
1 -189 295 0
1 198 304 0
1 198 201 0
1 -198 -305 0
1 197 306 0
1 197 307 0
1 -197 -308 0
1 -197 -309 0
1 -304 -189 0
1 304 -310 0
1 -304 -311 0
1 -308 198 0
1 -312 -189 0
1 312 313 0
1 312 296 0
1 -312 -314 0
1 -312 -315 0
1 -314 -197 0
1 314 -189 0
1 -314 312 0
1 -314 -316 0
1 -193 -309 0
1 193 317 0
1 193 -196 0
1 -193 -185 0
1 -193 192 0
1 -193 -308 0
1 -195 210 0
1 -211 -318 0
1 -211 -307 0
1 -211 -309 0
1 -211 308 0
1 311 306 0
1 -311 194 0
1 -311 211 0
1 -311 -319 0
1 307 -211 0
1 306 320 0
1 -317 197 0
1 -317 309 0
1 317 -184 0
1 -317 -193 0
1 -317 321 0
1 -317 315 0
1 309 -322 0
1 -309 -315 0
1 -222 318 0
1 -222 205 0
1 222 -307 0
1 209 -318 0
1 -209 210 0
1 209 203 0
1 209 -307 0
1 -209 192 0
1 -323 324 0
1 323 -206 0
1 -325 203 0
1 325 -219 0
1 326 327 0
1 326 185 0
1 194 328 0
1 194 -225 0
1 194 -222 0
1 194 -211 0
1 -194 329 0
1 -194 311 0
1 -318 -330 0
1 -318 211 0
1 220 -203 0
1 220 202 0
1 -227 203 0
1 227 -331 0
1 -227 206 0
1 227 -202 0
1 225 145 0
1 -225 -329 0
1 -225 -206 0
1 -329 -214 0
1 -206 -242 0
1 -206 -325 0
1 208 226 0
1 -208 -332 0
1 331 -220 0
1 333 329 0
1 -333 -227 0
1 -226 228 0
1 -226 -334 0
1 -226 124 0
1 226 234 0
1 -226 -221 0
1 234 -226 0
1 234 208 0
1 234 221 0
1 -335 -336 0
1 335 -337 0
1 -335 221 0
1 -335 -238 0
1 242 -206 0
1 -217 226 0
1 -217 -248 0
1 217 -218 0
1 218 -248 0
1 -221 -338 0
1 221 339 0
1 -221 234 0
1 334 -226 0
1 -334 221 0
1 -232 -228 0
1 251 340 0
1 251 -341 0
1 -251 -247 0
1 -251 -248 0
1 251 -342 0
1 251 337 0
1 248 -160 0
1 -224 -244 0
1 337 335 0
1 337 -224 0
1 -336 335 0
1 -336 343 0
1 336 248 0
1 336 -232 0
1 -336 -342 0
1 336 251 0
1 342 -124 0
1 342 344 0
1 -342 -251 0
1 -246 341 0
1 246 -244 0
1 -244 -243 0
1 244 -241 0
1 244 -341 0
1 244 252 0
1 244 337 0
1 244 -235 0
1 244 345 0
1 -346 252 0
1 -346 337 0
1 346 347 0
1 -257 224 0
1 257 -341 0
1 257 337 0
1 -341 348 0
1 -341 244 0
1 -235 -349 0
1 -235 -350 0
1 -235 -346 0
1 -235 -246 0
1 -351 -259 0
1 351 352 0
1 -351 -353 0
1 -351 -254 0
1 -352 -252 0
1 352 -153 0
1 -352 -354 0
1 352 256 0
1 -264 -153 0
1 -264 355 0
1 264 345 0
1 268 341 0
1 354 -268 0
1 -354 346 0
1 -353 257 0
1 -353 -356 0
1 -353 357 0
1 -353 350 0
1 -353 351 0
1 347 348 0
1 -347 -264 0
1 347 -358 0
1 261 -350 0
1 -262 -259 0
1 -262 152 0
1 -262 -359 0
1 -262 -255 0
1 262 -360 0
1 -262 361 0
1 -278 362 0
1 278 354 0
1 278 -359 0
1 278 363 0
1 360 -364 0
1 360 261 0
1 360 365 0
1 365 273 0
1 365 366 0
1 365 254 0
1 -255 364 0
1 -361 -367 0
1 -273 -368 0
1 273 -366 0
1 366 369 0
1 366 -365 0
1 -370 362 0
1 370 -371 0
1 370 372 0
1 -373 372 0
1 -363 -250 0
1 363 -374 0
1 -368 375 0
1 368 376 0
1 369 -377 0
1 -369 -364 0
1 362 375 0
1 362 370 0
1 -362 369 0
1 -362 -378 0
1 -362 -373 0
1 376 -368 0
1 376 -364 0
1 -376 -363 0
1 -374 -376 0
1 -379 -372 0
1 -379 -380 0
1 -379 381 0
1 382 368 0
1 382 371 0
1 382 380 0
1 -382 -383 0
1 372 -384 0
1 372 382 0
1 277 -385 0
1 371 269 0
1 371 -379 0
1 -371 -385 0
1 386 -381 0
1 -387 -386 0
1 -387 -381 0
1 388 389 0
1 389 -386 0
1 381 386 0
1 381 -389 0
1 381 -382 0
1 -383 -379 0
1 -383 382 0
1 -380 -387 0
1 390 391 0
1 -390 -392 0
1 -390 -299 0
1 390 -393 0
1 390 394 0
1 -392 189 0
1 392 291 0
1 303 197 0
1 303 -393 0
1 -391 390 0
1 395 -392 0
1 395 -396 0
1 395 305 0
1 395 390 0
1 394 303 0
1 393 305 0
1 393 390 0
1 -313 -312 0
1 316 -391 0
1 316 -300 0
1 316 -294 0
1 396 -312 0
1 -319 397 0
1 319 314 0
1 -319 311 0
1 397 -398 0
1 -397 -399 0
1 397 -319 0
1 398 303 0
1 -398 -400 0
1 298 -305 0
1 298 -319 0
1 401 -399 0
1 401 319 0
1 -402 -304 0
1 402 317 0
1 -402 -398 0
1 -402 315 0
1 -315 317 0
1 315 -314 0
1 -315 403 0
1 315 -309 0
1 -404 -405 0
1 400 397 0
1 400 -310 0
1 -400 -317 0
1 406 -404 0
1 -406 -402 0
1 -406 -396 0
1 -403 -407 0
1 -403 -402 0
1 -403 396 0
1 -403 408 0
1 -403 -409 0
1 -403 -295 0
1 -403 -315 0
1 302 410 0
1 -302 -411 0
1 -302 -412 0
1 -405 413 0
1 405 -404 0
1 405 400 0
1 -320 406 0
1 -322 -320 0
1 322 -414 0
1 322 317 0
1 -322 307 0
1 -322 -399 0
1 407 -321 0
1 -407 -415 0
1 407 416 0
1 -407 -417 0
1 418 -310 0
1 418 419 0
1 -418 415 0
1 -310 -420 0
1 310 -327 0
1 -416 421 0
1 416 -420 0
1 416 -418 0
1 -416 308 0
1 -414 -422 0
1 -414 -410 0
1 -414 -407 0
1 414 320 0
1 -414 312 0
1 414 409 0
1 -414 400 0
1 414 415 0
1 415 -418 0
1 -415 322 0
1 328 -423 0
1 -328 194 0
1 328 -333 0
1 -327 -194 0
1 327 -310 0
1 327 234 0
1 327 -331 0
1 -424 -425 0
1 420 -333 0
1 420 426 0
1 420 425 0
1 419 -424 0
1 419 -328 0
1 -419 427 0
1 419 418 0
1 419 428 0
1 -423 -306 0
1 -321 -328 0
1 321 407 0
1 -321 -420 0
1 417 -424 0
1 -417 407 0
1 417 -429 0
1 417 420 0
1 417 321 0
1 -430 -421 0
1 430 333 0
1 -430 419 0
1 332 333 0
1 -332 -334 0
1 -332 232 0
1 -332 426 0
1 431 330 0
1 -431 -432 0
1 431 433 0
1 431 -339 0
1 431 426 0
1 339 -433 0
1 339 419 0
1 -339 -434 0
1 425 424 0
1 425 432 0
1 425 -343 0
1 425 326 0
1 432 435 0
1 426 -424 0
1 -426 420 0
1 -330 -426 0
1 -330 -428 0
1 330 430 0
1 -436 334 0
1 436 -428 0
1 -436 221 0
1 -436 217 0
1 -338 336 0
1 338 -437 0
1 338 334 0
1 338 342 0
1 338 -425 0
1 338 -436 0
1 338 -434 0
1 -438 439 0
1 438 -346 0
1 438 440 0
1 -343 -434 0
1 -434 -338 0
1 434 -433 0
1 -434 206 0
1 -434 -441 0
1 434 344 0
1 -434 438 0
1 433 442 0
1 443 -444 0
1 -437 -333 0
1 437 338 0
1 437 -441 0
1 437 -431 0
1 344 -340 0
1 344 342 0
1 -344 440 0
1 445 -340 0
1 445 -434 0
1 355 -434 0
1 -349 -340 0
1 -440 445 0
1 440 -438 0
1 -446 349 0
1 -446 440 0
1 -446 343 0
1 -446 -350 0
1 -447 445 0
1 -447 343 0
1 447 355 0
1 -447 -438 0
1 -439 -334 0
1 -439 441 0
1 -439 344 0
1 350 -348 0
1 -350 340 0
1 348 -442 0
1 348 -340 0
1 348 -353 0
1 -348 448 0
1 -348 235 0
1 348 347 0
1 -357 446 0
1 357 -278 0
1 357 -449 0
1 -357 -450 0
1 357 -358 0
1 358 -451 0
1 -358 -452 0
1 -358 357 0
1 -358 453 0
1 -358 -440 0
1 454 224 0
1 -454 349 0
1 454 455 0
1 454 456 0
1 -454 -357 0
1 454 350 0
1 454 -457 0
1 -449 454 0
1 -449 -456 0
1 449 -350 0
1 -449 458 0
1 -459 348 0
1 459 349 0
1 -459 460 0
1 448 460 0
1 448 357 0
1 -448 -461 0
1 -448 -462 0
1 -463 273 0
1 463 255 0
1 463 354 0
1 -458 353 0
1 -458 255 0
1 -458 450 0
1 458 -347 0
1 458 354 0
1 458 -361 0
1 458 464 0
1 465 450 0
1 465 -466 0
1 -465 467 0
1 465 -367 0
1 -465 -361 0
1 -367 452 0
1 -367 468 0
1 367 -469 0
1 367 466 0
1 367 -462 0
1 -452 -470 0
1 452 -364 0
1 466 465 0
1 -471 470 0
1 471 465 0
1 471 -463 0
1 471 -472 0
1 -471 458 0
1 -450 -465 0
1 450 -357 0
1 450 -473 0
1 -450 457 0
1 450 367 0
1 -364 376 0
1 364 -255 0
1 -364 360 0
1 -364 -369 0
1 -474 -362 0
1 474 -452 0
1 474 -364 0
1 -474 -466 0
1 474 -255 0
1 474 369 0
1 -377 356 0
1 377 -466 0
1 377 467 0
1 378 -362 0
1 378 468 0
1 378 -369 0
1 -378 -469 0
1 468 377 0
1 -468 -465 0
1 -468 -469 0
1 -469 375 0
1 -469 -468 0
1 469 475 0
1 469 -378 0
1 356 -353 0
1 356 -378 0
1 467 377 0
1 -467 474 0
1 -375 371 0
1 375 -468 0
1 385 -371 0
1 -385 476 0
1 -385 369 0
1 -385 -477 0
1 -478 468 0
1 478 -479 0
1 -478 -277 0
1 -478 477 0
1 -475 -480 0
1 -475 277 0
1 -475 477 0
1 -476 -478 0
1 -476 -377 0
1 -477 478 0
1 -477 -375 0
1 -477 -475 0
1 479 478 0
1 -479 377 0
1 -479 -475 0
1 479 385 0
1 -481 -478 0
1 481 377 0
1 482 320 0
1 -482 483 0
1 399 302 0
1 399 -483 0
1 399 401 0
1 -411 -302 0
1 411 483 0
1 -484 302 0
1 -484 -485 0
1 -484 -486 0
1 -484 -405 0
1 487 410 0
1 487 488 0
1 -487 482 0
1 -483 489 0
1 483 490 0
1 491 492 0
1 -491 493 0
1 493 -393 0
1 -410 -487 0
1 409 494 0
1 -409 -406 0
1 -409 -405 0
1 -422 -495 0
1 -485 -422 0
1 -485 410 0
1 485 -411 0
1 485 484 0
1 -485 486 0
1 486 -422 0
1 486 496 0
1 486 -398 0
1 -486 -497 0
1 -494 411 0
1 494 -409 0
1 -495 422 0
1 495 -489 0
1 -421 -321 0
1 429 -415 0
1 498 -499 0
1 498 500 0
1 -498 -417 0
1 501 -500 0
1 -499 -408 0
1 408 403 0
1 -408 -429 0
1 408 502 0
1 -412 -302 0
1 412 503 0
1 -412 496 0
1 412 -498 0
1 -413 -422 0
1 -413 -429 0
1 -413 -504 0
1 428 505 0
1 -428 -506 0
1 428 504 0
1 428 -500 0
1 -427 -423 0
1 427 507 0
1 427 408 0
1 427 -428 0
1 -427 500 0
1 508 -509 0
1 508 510 0
1 508 505 0
1 -511 -509 0
1 511 -510 0
1 -506 512 0
1 506 -513 0
1 -506 -427 0
1 -506 498 0
1 -500 -512 0
1 -500 511 0
1 500 514 0
1 500 -498 0
1 507 512 0
1 -507 -414 0
1 507 515 0
1 505 511 0
1 505 516 0
1 517 -510 0
1 -517 -344 0
1 517 425 0
1 517 518 0
1 517 -500 0
1 -513 -519 0
1 -513 520 0
1 -513 -443 0
1 444 -519 0
1 -444 443 0
1 521 -519 0
1 521 506 0
1 -510 442 0
1 510 -511 0
1 510 -522 0
1 520 423 0
1 520 -513 0
1 -509 321 0
1 -519 -523 0
1 -441 -437 0
1 441 514 0
1 441 -524 0
1 -441 443 0
1 442 348 0
1 442 -512 0
1 442 433 0
1 442 441 0
1 525 524 0
1 -525 526 0
1 451 -358 0
1 524 460 0
1 -527 -528 0
1 -529 -441 0
1 529 444 0
1 529 -527 0
1 460 435 0
1 -460 -530 0
1 -464 530 0
1 -464 -531 0
1 464 439 0
1 -464 -460 0
1 464 -448 0
1 -464 532 0
1 533 -534 0
1 533 459 0
1 533 -435 0
1 533 465 0
1 -533 -535 0
1 533 536 0
1 462 537 0
1 462 367 0
1 532 451 0
1 -532 -538 0
1 532 539 0
1 -532 -533 0
1 532 -472 0
1 -532 457 0
1 532 462 0
1 -531 -456 0
1 531 -533 0
1 531 525 0
1 526 540 0
1 -526 -525 0
1 530 -541 0
1 -530 464 0
1 -456 -454 0
1 456 -531 0
1 -456 -449 0
1 -456 -457 0
1 -456 -536 0
1 -457 454 0
1 -457 -456 0
1 457 -537 0
1 -539 -537 0
1 -472 531 0
1 -472 -535 0
1 472 -450 0
1 -472 532 0
1 -472 -536 0
1 -534 456 0
1 -534 -537 0
1 534 480 0
1 -537 542 0
1 537 -456 0
1 -537 480 0
1 -537 -473 0
1 -537 472 0
1 537 457 0
1 -536 -543 0
1 536 -544 0
1 -536 -472 0
1 -535 -543 0
1 -535 -456 0
1 -535 544 0
1 -535 -462 0
1 470 -455 0
1 -470 538 0
1 -470 537 0
1 -470 461 0
1 -473 534 0
1 473 -356 0
1 473 466 0
1 542 -545 0
1 542 -467 0
1 480 534 0
1 -480 -544 0
1 455 -542 0
1 -545 542 0
1 -545 455 0
1 -545 -449 0
1 546 -539 0
1 -461 -480 0
1 504 547 0
1 -504 -490 0
1 -504 -495 0
1 -504 486 0
1 -548 -549 0
1 548 -503 0
1 548 413 0
1 503 -549 0
1 488 496 0
1 -488 -490 0
1 -488 -504 0
1 490 503 0
1 -490 504 0
1 492 548 0
1 547 503 0
1 -547 -493 0
1 -547 550 0
1 518 488 0
1 518 499 0
1 -518 507 0
1 -518 551 0
1 -552 -518 0
1 -516 -488 0
1 -516 553 0
1 516 -507 0
1 516 502 0
1 -516 -505 0
1 -554 521 0
1 554 -549 0
1 554 -497 0
1 -549 554 0
1 549 -548 0
1 497 -555 0
1 497 -548 0
1 553 494 0
1 553 -556 0
1 551 503 0
1 551 557 0
1 551 -518 0
1 -551 548 0
1 514 506 0
1 514 509 0
1 -514 -441 0
1 512 558 0
1 -512 509 0
1 555 497 0
1 -555 -559 0
1 -555 -560 0
1 -558 -523 0
1 -558 -561 0
1 -562 -563 0
1 -562 -564 0
1 -562 559 0
1 -562 565 0
1 559 -563 0
1 -559 -556 0
1 559 566 0
1 -559 567 0
1 -523 556 0
1 -523 -568 0
1 -522 -569 0
1 522 -510 0
1 -522 527 0
1 570 -558 0
1 570 502 0
1 -561 -527 0
1 -561 -560 0
1 569 541 0
1 -569 -522 0
1 560 -500 0
1 -560 -528 0
1 -560 523 0
1 560 569 0
1 -560 566 0
1 -560 -571 0
1 -560 561 0
1 515 -555 0
1 -515 -570 0
1 568 -572 0
1 528 529 0
1 528 -530 0
1 528 -569 0
1 -571 573 0
1 -540 574 0
1 540 -530 0
1 -540 -575 0
1 -540 -541 0
1 -541 530 0
1 541 569 0
1 541 576 0
1 -573 -574 0
1 -573 540 0
1 -574 -543 0
1 -574 -538 0
1 -577 541 0
1 578 -579 0
1 -578 -540 0
1 578 -577 0
1 578 -580 0
1 -538 -530 0
1 -538 -535 0
1 581 -535 0
1 -581 -582 0
1 -581 583 0
1 543 535 0
1 543 -573 0
1 -544 -574 0
1 -544 575 0
1 -584 -543 0
1 584 544 0
1 -584 524 0
1 -582 -581 0
1 582 -541 0
1 -585 -543 0
1 556 586 0
1 556 -562 0
1 -556 -523 0
1 -556 -551 0
1 587 562 0
1 -564 588 0
1 564 -589 0
1 565 590 0
1 565 -562 0
1 565 564 0
1 565 -550 0
1 -586 591 0
1 -586 563 0
1 586 564 0
1 -586 589 0
1 -586 576 0
1 589 563 0
1 -589 490 0
1 -590 -492 0
1 563 592 0
1 563 -562 0
1 -563 -558 0
1 563 -568 0
1 -572 588 0
1 -572 -559 0
1 572 -571 0
1 591 -586 0
1 591 576 0
1 576 -588 0
1 -576 593 0
1 576 -541 0
1 -592 594 0
1 -592 595 0
1 -592 565 0
1 595 579 0
1 -595 497 0
1 595 576 0
1 -595 -565 0
1 -588 -591 0
1 -588 -557 0
1 557 -551 0
1 -557 572 0
1 594 -569 0
1 594 577 0
1 -594 -583 0
1 583 -577 0
1 -579 -543 0
1 579 -595 0
1 579 -567 0
1 -580 -578 0
1 580 596 0
1 -597 -591 0
1 -597 596 0
1 -596 -580 0
1 593 580 0
1 -567 593 0
